RAW/XQ/fspd/X-n101-k25.vrp_seed-4.out
21933	17.454	29.068
