RAW/XQ/fspd/X-n101-k25.vrp_seed-4.sol
Route #1: 71 62 99 98 89 100
Route #2: 81 51 83 52
Route #3: 21 61 23
Route #4: 86 9 92 54 68
Route #5: 58 3 64 17 80
Route #6: 93 53 32
Route #7: 11 85 30 75
Route #8: 35 20 41 22 15
Route #9: 19 91 97
Route #10: 79 50
Route #11: 74 13 4 18 12
Route #12: 65 7 49 2 45 43 29 36 6 72 57 88 40
Route #13: 66 84 90 76 55 16 69
Route #14: 27 38 47 94 56 8
Route #15: 33 73 95 31 24 46
Route #16: 1 70 5
Route #17: 25 10 39
Route #18: 63 28 82 60 59
Route #19: 42 78 37 87 48 26 96
Route #20: 34 67 77 14 44
Cost 21933.000000